Automatic mesh
0
Monkhorst-pack
     4     4     4
 0.000 0.000 0.000


Automatic mesh      # コメント
0                   
Monkhorst-pack
     4     4     4  # メッシュの数
 0.000 0.000 0.000  # メッシュを平行移動
